B=5;
D=1;
P=9;
S=9;
demands = [3 4 2 5 2 5 5 2 2 ];
capacities = [1 2 1 10 7 3 7 5 3 ];
dist_start = [6 6 1 3 7 3 1 10 4 ];
dist = [7 9 1 9 1 1 1 7 9 7 5 6 10 4 2 1 4 4 3 8 7 8 5 9 10 2 1 2 1 6 4 8 4 6 6 4 8 8 2 6 4 6 3 4 9 4 6 4 8 10 3 4 7 8 4 9 9 4 10 1 1 5 8 4 2 5 9 9 4 10 4 8 5 7 3 5 2 10 9 9 9 ];
